(set-logic QF_S)
(declare-fun var0 () String)
(assert (RegexIn var0 (RegexConcat (RegexUnion (RegexPlus (Str2Reg "00")) (RegexPlus (Str2Reg "11"))) (RegexConcat (RegexStar (RegexPlus (Str2Reg "222"))) (RegexConcat (RegexUnion (RegexPlus (Str2Reg "33")) (RegexPlus (Str2Reg "444"))) (RegexConcat (RegexUnion (RegexUnion (Str2Reg "555") (Str2Reg "66")) (RegexUnion (Str2Reg "77") (Str2Reg "888"))) (RegexConcat (RegexStar (RegexStar (Str2Reg "99"))) (RegexConcat (RegexPlus (RegexStar (Str2Reg "a"))) (RegexConcat (RegexUnion (RegexStar (Str2Reg "bbb")) (RegexStar (Str2Reg "cc"))) (RegexConcat (RegexUnion (RegexPlus (Str2Reg "dd")) (RegexPlus (Str2Reg "e"))) (RegexConcat (RegexPlus (RegexPlus (Str2Reg "fff"))) (RegexConcat (RegexStar (RegexPlus (Str2Reg "gg"))) (RegexConcat (RegexStar (RegexUnion (Str2Reg "hhh") (Str2Reg "i"))) (RegexConcat (RegexPlus (RegexPlus (Str2Reg "jj"))) (RegexConcat (RegexUnion (RegexStar (Str2Reg "kkk")) (RegexStar (Str2Reg "l"))) (RegexConcat (RegexPlus (RegexUnion (Str2Reg "mm") (Str2Reg "n"))) (RegexConcat (RegexUnion (RegexUnion (Str2Reg "o") (Str2Reg "ppp")) (RegexUnion (Str2Reg "q") (Str2Reg "rr"))) (RegexConcat (RegexStar (RegexStar (Str2Reg "s"))) (RegexConcat (RegexStar (RegexPlus (Str2Reg "ttt"))) (RegexConcat (RegexPlus (RegexUnion (Str2Reg "uu") (Str2Reg "v"))) (RegexConcat (RegexPlus (RegexPlus (Str2Reg "www"))) (RegexConcat (RegexUnion (RegexUnion (Str2Reg "xxx") (Str2Reg "yy")) (RegexUnion (Str2Reg "zz") (Str2Reg "A"))) (RegexConcat (RegexPlus (RegexPlus (Str2Reg "B"))) (RegexConcat (RegexUnion (RegexPlus (Str2Reg "CC")) (RegexPlus (Str2Reg "D"))) (RegexConcat (RegexPlus (RegexPlus (Str2Reg "EE"))) (RegexConcat (RegexPlus (RegexStar (Str2Reg "FF"))) (RegexConcat (RegexStar (RegexPlus (Str2Reg "GGG"))) (RegexConcat (RegexUnion (RegexStar (Str2Reg "HHH")) (RegexStar (Str2Reg "III"))) (RegexConcat (RegexStar (RegexUnion (Str2Reg "J") (Str2Reg "KK"))) (RegexConcat (RegexStar (RegexPlus (Str2Reg "LL"))) (RegexConcat (RegexPlus (RegexUnion (Str2Reg "MMM") (Str2Reg "N"))) (RegexConcat (RegexStar (RegexPlus (Str2Reg "O"))) (RegexConcat (RegexPlus (RegexStar (Str2Reg "PPP"))) (RegexConcat (RegexPlus (RegexStar (Str2Reg "Q"))) (RegexConcat (RegexPlus (RegexPlus (Str2Reg "RRR"))) (RegexConcat (RegexPlus (RegexStar (Str2Reg "S"))) (RegexConcat (RegexUnion (RegexPlus (Str2Reg "TT")) (RegexPlus (Str2Reg "U"))) (RegexConcat (RegexUnion (RegexPlus (Str2Reg "VV")) (RegexPlus (Str2Reg "W"))) (RegexConcat (RegexUnion (RegexStar (Str2Reg "X")) (RegexStar (Str2Reg "YYY"))) (RegexConcat (RegexStar (RegexUnion (Str2Reg "Z") (Str2Reg "!"))) (RegexConcat (RegexUnion (RegexStar (Str2Reg "\"\"")) (RegexStar (Str2Reg "#"))) (RegexConcat (RegexUnion (RegexUnion (Str2Reg "$$$") (Str2Reg "%%%")) (RegexUnion (Str2Reg "&&") (Str2Reg "''"))) (RegexConcat (RegexStar (RegexStar (Str2Reg "((("))) (RegexConcat (RegexStar (RegexPlus (Str2Reg ")))"))) (RegexConcat (RegexUnion (RegexPlus (Str2Reg "***")) (RegexPlus (Str2Reg "+++"))) (RegexConcat (RegexUnion (RegexPlus (Str2Reg ",,")) (RegexPlus (Str2Reg "-"))) (RegexConcat (RegexUnion (RegexStar (Str2Reg "..")) (RegexStar (Str2Reg "///"))) (RegexConcat (RegexPlus (RegexUnion (Str2Reg ":") (Str2Reg ";;"))) (RegexConcat (RegexStar (RegexPlus (Str2Reg "<<"))) (RegexConcat (RegexPlus (RegexPlus (Str2Reg "=="))) (RegexConcat (RegexPlus (RegexUnion (Str2Reg ">") (Str2Reg "??"))) (RegexConcat (RegexStar (RegexUnion (Str2Reg "@@") (Str2Reg "[["))) (RegexConcat (RegexPlus (RegexStar (Str2Reg "\\\\"))) (RegexConcat (RegexPlus (RegexStar (Str2Reg "]"))) (RegexConcat (RegexStar (RegexStar (Str2Reg "^^"))) (RegexConcat (RegexUnion (RegexPlus (Str2Reg "___")) (RegexPlus (Str2Reg "``"))) (RegexConcat (RegexStar (RegexUnion (Str2Reg "{") (Str2Reg "|"))) (RegexConcat (RegexStar (RegexUnion (Str2Reg "}}") (Str2Reg "~"))) (RegexConcat (RegexUnion (RegexStar (Str2Reg "0")) (RegexStar (Str2Reg "1"))) (RegexConcat (RegexStar (RegexUnion (Str2Reg "222") (Str2Reg "3"))) (RegexConcat (RegexUnion (RegexPlus (Str2Reg "4")) (RegexPlus (Str2Reg "5"))) (RegexConcat (RegexUnion (RegexStar (Str2Reg "6")) (RegexStar (Str2Reg "77"))) (RegexConcat (RegexStar (RegexStar (Str2Reg "888"))) (RegexConcat (RegexUnion (RegexUnion (Str2Reg "9") (Str2Reg "aaa")) (RegexUnion (Str2Reg "b") (Str2Reg "c"))) (RegexConcat (RegexUnion (RegexUnion (Str2Reg "d") (Str2Reg "e")) (RegexUnion (Str2Reg "fff") (Str2Reg "g"))) (RegexConcat (RegexUnion (RegexPlus (Str2Reg "hh")) (RegexPlus (Str2Reg "ii"))) (RegexConcat (RegexStar (RegexStar (Str2Reg "jjj"))) (RegexConcat (RegexPlus (RegexUnion (Str2Reg "kkk") (Str2Reg "lll"))) (RegexConcat (RegexUnion (RegexStar (Str2Reg "mm")) (RegexStar (Str2Reg "nnn"))) (RegexConcat (RegexStar (RegexStar (Str2Reg "ooo"))) (RegexConcat (RegexUnion (RegexUnion (Str2Reg "pp") (Str2Reg "qqq")) (RegexUnion (Str2Reg "r") (Str2Reg "s"))) (RegexConcat (RegexStar (RegexUnion (Str2Reg "ttt") (Str2Reg "u"))) (RegexConcat (RegexStar (RegexStar (Str2Reg "v"))) (RegexConcat (RegexPlus (RegexUnion (Str2Reg "w") (Str2Reg "xxx"))) (RegexConcat (RegexStar (RegexPlus (Str2Reg "yyy"))) (RegexConcat (RegexStar (RegexUnion (Str2Reg "zz") (Str2Reg "AAA"))) (RegexConcat (RegexUnion (RegexStar (Str2Reg "BB")) (RegexStar (Str2Reg "CCC"))) (RegexConcat (RegexStar (RegexPlus (Str2Reg "DDD"))) (RegexConcat (RegexUnion (RegexStar (Str2Reg "EE")) (RegexStar (Str2Reg "F"))) (RegexConcat (RegexStar (RegexStar (Str2Reg "GG"))) (RegexConcat (RegexStar (RegexStar (Str2Reg "HH"))) (RegexConcat (RegexPlus (RegexStar (Str2Reg "II"))) (RegexConcat (RegexUnion (RegexUnion (Str2Reg "JJ") (Str2Reg "K")) (RegexUnion (Str2Reg "L") (Str2Reg "MMM"))) (RegexConcat (RegexPlus (RegexPlus (Str2Reg "NN"))) (RegexConcat (RegexPlus (RegexUnion (Str2Reg "O") (Str2Reg "PP"))) (RegexConcat (RegexStar (RegexUnion (Str2Reg "QQQ") (Str2Reg "R"))) (RegexConcat (RegexUnion (RegexStar (Str2Reg "SS")) (RegexStar (Str2Reg "TT"))) (RegexConcat (RegexStar (RegexStar (Str2Reg "U"))) (RegexConcat (RegexUnion (RegexPlus (Str2Reg "V")) (RegexPlus (Str2Reg "WWW"))) (RegexConcat (RegexStar (RegexPlus (Str2Reg "XXX"))) (RegexConcat (RegexPlus (RegexUnion (Str2Reg "YYY") (Str2Reg "Z"))) (RegexConcat (RegexStar (RegexUnion (Str2Reg "!!!") (Str2Reg "\""))) (RegexPlus (RegexUnion (Str2Reg "###") (Str2Reg "$")))))))))))))))))))))))))))))))))))))))))))))))))))))))))))))))))))))))))))))))))))))))))))))))
(assert (not (RegexIn var0 (RegexConcat (RegexStar (RegexPlus (Str2Reg "000"))) (RegexConcat (RegexPlus (RegexPlus (Str2Reg "11"))) (RegexConcat (RegexUnion (RegexPlus (Str2Reg "2")) (RegexPlus (Str2Reg "3"))) (RegexConcat (RegexStar (RegexPlus (Str2Reg "444"))) (RegexConcat (RegexPlus (RegexStar (Str2Reg "55"))) (RegexConcat (RegexStar (RegexPlus (Str2Reg "666"))) (RegexConcat (RegexPlus (RegexPlus (Str2Reg "777"))) (RegexConcat (RegexUnion (RegexStar (Str2Reg "8")) (RegexStar (Str2Reg "999"))) (RegexConcat (RegexUnion (RegexUnion (Str2Reg "aa") (Str2Reg "b")) (RegexUnion (Str2Reg "ccc") (Str2Reg "ddd"))) (RegexConcat (RegexUnion (RegexStar (Str2Reg "eee")) (RegexStar (Str2Reg "ff"))) (RegexConcat (RegexStar (RegexPlus (Str2Reg "gg"))) (RegexConcat (RegexStar (RegexPlus (Str2Reg "hh"))) (RegexConcat (RegexUnion (RegexPlus (Str2Reg "ii")) (RegexPlus (Str2Reg "j"))) (RegexConcat (RegexPlus (RegexPlus (Str2Reg "k"))) (RegexConcat (RegexUnion (RegexStar (Str2Reg "lll")) (RegexStar (Str2Reg "m"))) (RegexConcat (RegexStar (RegexUnion (Str2Reg "nnn") (Str2Reg "o"))) (RegexConcat (RegexPlus (RegexStar (Str2Reg "p"))) (RegexConcat (RegexStar (RegexPlus (Str2Reg "qqq"))) (RegexConcat (RegexPlus (RegexUnion (Str2Reg "rrr") (Str2Reg "sss"))) (RegexConcat (RegexUnion (RegexStar (Str2Reg "t")) (RegexStar (Str2Reg "uu"))) (RegexConcat (RegexUnion (RegexPlus (Str2Reg "vv")) (RegexPlus (Str2Reg "www"))) (RegexConcat (RegexStar (RegexUnion (Str2Reg "xx") (Str2Reg "yy"))) (RegexConcat (RegexPlus (RegexPlus (Str2Reg "z"))) (RegexConcat (RegexUnion (RegexUnion (Str2Reg "A") (Str2Reg "BBB")) (RegexUnion (Str2Reg "CCC") (Str2Reg "D"))) (RegexConcat (RegexPlus (RegexPlus (Str2Reg "EE"))) (RegexConcat (RegexStar (RegexStar (Str2Reg "FF"))) (RegexConcat (RegexPlus (RegexStar (Str2Reg "GG"))) (RegexConcat (RegexPlus (RegexStar (Str2Reg "HHH"))) (RegexConcat (RegexStar (RegexUnion (Str2Reg "III") (Str2Reg "J"))) (RegexConcat (RegexStar (RegexPlus (Str2Reg "KKK"))) (RegexConcat (RegexPlus (RegexUnion (Str2Reg "LLL") (Str2Reg "MMM"))) (RegexConcat (RegexUnion (RegexPlus (Str2Reg "NN")) (RegexPlus (Str2Reg "OO"))) (RegexConcat (RegexUnion (RegexStar (Str2Reg "P")) (RegexStar (Str2Reg "QQQ"))) (RegexConcat (RegexPlus (RegexUnion (Str2Reg "R") (Str2Reg "SS"))) (RegexConcat (RegexUnion (RegexPlus (Str2Reg "T")) (RegexPlus (Str2Reg "U"))) (RegexConcat (RegexPlus (RegexUnion (Str2Reg "VV") (Str2Reg "WW"))) (RegexConcat (RegexUnion (RegexUnion (Str2Reg "X") (Str2Reg "Y")) (RegexUnion (Str2Reg "Z") (Str2Reg "!"))) (RegexConcat (RegexPlus (RegexStar (Str2Reg "\"\""))) (RegexConcat (RegexPlus (RegexStar (Str2Reg "###"))) (RegexConcat (RegexStar (RegexUnion (Str2Reg "$$$") (Str2Reg "%%"))) (RegexConcat (RegexStar (RegexPlus (Str2Reg "&&&"))) (RegexConcat (RegexPlus (RegexPlus (Str2Reg "'''"))) (RegexConcat (RegexPlus (RegexPlus (Str2Reg "("))) (RegexConcat (RegexStar (RegexStar (Str2Reg ")))"))) (RegexConcat (RegexStar (RegexStar (Str2Reg "***"))) (RegexConcat (RegexStar (RegexUnion (Str2Reg "+++") (Str2Reg ",,"))) (RegexConcat (RegexStar (RegexStar (Str2Reg "---"))) (RegexConcat (RegexUnion (RegexPlus (Str2Reg ".")) (RegexPlus (Str2Reg "//"))) (RegexConcat (RegexStar (RegexStar (Str2Reg ":"))) (RegexConcat (RegexUnion (RegexPlus (Str2Reg ";;;")) (RegexPlus (Str2Reg "<<"))) (RegexConcat (RegexUnion (RegexStar (Str2Reg "==")) (RegexStar (Str2Reg ">>"))) (RegexConcat (RegexUnion (RegexStar (Str2Reg "??")) (RegexStar (Str2Reg "@@"))) (RegexConcat (RegexStar (RegexPlus (Str2Reg "[[["))) (RegexConcat (RegexUnion (RegexUnion (Str2Reg "\\") (Str2Reg "]]")) (RegexUnion (Str2Reg "^") (Str2Reg "_"))) (RegexConcat (RegexUnion (RegexStar (Str2Reg "``")) (RegexStar (Str2Reg "{"))) (RegexConcat (RegexUnion (RegexUnion (Str2Reg "|") (Str2Reg "}")) (RegexUnion (Str2Reg "~~~") (Str2Reg "000"))) (RegexConcat (RegexPlus (RegexUnion (Str2Reg "11") (Str2Reg "2"))) (RegexConcat (RegexUnion (RegexStar (Str2Reg "33")) (RegexStar (Str2Reg "44"))) (RegexConcat (RegexUnion (RegexStar (Str2Reg "555")) (RegexStar (Str2Reg "66"))) (RegexConcat (RegexUnion (RegexStar (Str2Reg "7")) (RegexStar (Str2Reg "8"))) (RegexConcat (RegexUnion (RegexPlus (Str2Reg "999")) (RegexPlus (Str2Reg "a"))) (RegexConcat (RegexStar (RegexUnion (Str2Reg "bb") (Str2Reg "cc"))) (RegexConcat (RegexStar (RegexPlus (Str2Reg "ddd"))) (RegexConcat (RegexPlus (RegexStar (Str2Reg "ee"))) (RegexConcat (RegexPlus (RegexStar (Str2Reg "f"))) (RegexConcat (RegexStar (RegexUnion (Str2Reg "ggg") (Str2Reg "hh"))) (RegexConcat (RegexStar (RegexUnion (Str2Reg "iii") (Str2Reg "j"))) (RegexConcat (RegexStar (RegexUnion (Str2Reg "k") (Str2Reg "l"))) (RegexConcat (RegexUnion (RegexUnion (Str2Reg "m") (Str2Reg "nn")) (RegexUnion (Str2Reg "o") (Str2Reg "p"))) (RegexConcat (RegexPlus (RegexStar (Str2Reg "q"))) (RegexConcat (RegexStar (RegexPlus (Str2Reg "rr"))) (RegexConcat (RegexUnion (RegexPlus (Str2Reg "sss")) (RegexPlus (Str2Reg "t"))) (RegexConcat (RegexStar (RegexStar (Str2Reg "uu"))) (RegexConcat (RegexUnion (RegexPlus (Str2Reg "vvv")) (RegexPlus (Str2Reg "ww"))) (RegexConcat (RegexStar (RegexStar (Str2Reg "xx"))) (RegexConcat (RegexStar (RegexPlus (Str2Reg "y"))) (RegexConcat (RegexStar (RegexUnion (Str2Reg "z") (Str2Reg "A"))) (RegexConcat (RegexPlus (RegexUnion (Str2Reg "BB") (Str2Reg "CCC"))) (RegexConcat (RegexPlus (RegexStar (Str2Reg "DD"))) (RegexConcat (RegexPlus (RegexPlus (Str2Reg "EE"))) (RegexConcat (RegexUnion (RegexPlus (Str2Reg "FF")) (RegexPlus (Str2Reg "GGG"))) (RegexConcat (RegexUnion (RegexUnion (Str2Reg "HHH") (Str2Reg "I")) (RegexUnion (Str2Reg "JJ") (Str2Reg "KKK"))) (RegexConcat (RegexPlus (RegexUnion (Str2Reg "L") (Str2Reg "M"))) (RegexConcat (RegexStar (RegexStar (Str2Reg "N"))) (RegexConcat (RegexPlus (RegexStar (Str2Reg "OOO"))) (RegexConcat (RegexPlus (RegexStar (Str2Reg "PP"))) (RegexConcat (RegexPlus (RegexUnion (Str2Reg "Q") (Str2Reg "RRR"))) (RegexConcat (RegexUnion (RegexUnion (Str2Reg "SS") (Str2Reg "T")) (RegexUnion (Str2Reg "UU") (Str2Reg "VV"))) (RegexConcat (RegexPlus (RegexPlus (Str2Reg "WW"))) (RegexConcat (RegexPlus (RegexStar (Str2Reg "XX"))) (RegexUnion (RegexPlus (Str2Reg "YYY")) (RegexPlus (Str2Reg "ZZ"))))))))))))))))))))))))))))))))))))))))))))))))))))))))))))))))))))))))))))))))))))))))))))))))
(check-sat)